-99 -99 000 000 -99 -99 000 000 -99 -99 -99 -99 -99 000 -99 -99 -99 -99 000 000 -99 -99 000 000 000 000 000 000 000 -99 000
000 000 000 000 000 000 000 000 -99 -99 -99 -99 -99 000 000 000 -99 000 -99 -99 -99 -99 000 000 000 000 000 001 000 -99 000
000 -99 000 000 000 000 000 000 000 000 -99 -99 -99 -99 000 000 000 000 -99 -99 -99 -99 000 000 000 000 000 002 000 -99 -99
000 -99 000 000 000 000 000 000 000 000 -99 -99 -99 -99 000 000 -99 -99 -99 -99 -99 -99 000 000 000 000 000 001 000 000 -99
000 000 000 000 000 000 000 000 000 000 -99 -99 000 -99 -99 000 000 -99 -99 -99 000 -99 000 000 000 -99 -99 000 000 -99 -99
000 000 000 000 000 000 000 000 000 000 000 -99 000 -99 000 000 000 -99 -99 -99 000 000 -99 000 000 -99 -99 -99 000 -99 -99
000 000 000 000 000 000 000 000 000 000 -99 -99 -99 000 000 000 000 -99 -99 -99 000 000 -99 000 000 -99 -99 -99 -99 -99 -99
000 000 000 000 000 000 000 000 000 000 -99 -99 -99 -99 -99 000 000 000 -99 -99 000 000 000 -99 000 -99 -99 -99 -99 000 000
000 000 000 000 000 000 000 000 000 000 -99 000 -99 -99 -99 -99 000 -99 -99 -99 000 -99 000 -99 000 -99 -99 -99 -99 000 000
000 000 000 000 000 000 000 000 000 000 000 000 -99 -99 -99 -99 000 000 000 -99 000 000 000 -99 -99 000 -99 -99 -99 000 000
000 000 000 000 000 000 000 000 000 000 000 000 000 -99 -99 -99 000 000 000 -99 000 000 000 000 000 -99 -99 -99 000 000 000
000 000 000 000 000 000 000 000 000 000 000 000 000 -99 -99 -99 000 000 000 000 000 000 -99 000 000 000 -99 -99 000 000 000
000 000 000 000 000 000 000 000 000 000 000 000 000 000 -99 -99 000 000 000 -99 -99 -99 -99 000 000 000 -99 -99 000 000 000
000 000 000 000 000 000 000 000 000 000 000 000 000 000 -99 000 000 -99 -99 -99 000 000 -99 000 000 000 000 -99 000 000 000
000 000 000 000 000 000 000 000 000 000 000 000 000 000 000 000 000 -99 000 000 000 -99 -99 -99 000 000 000 000 000 000 000
-99 -99 -99 -99 -99 -99 -99 000 000 000 000 000 000 000 000 000 000 000 000 000 000 000 000 -99 000 000 -99 000 000 000 -99
-99 -99 -99 -99 -99 000 000 000 000 000 000 000 000 000 000 001 000 000 000 000 000 -99 000 000 -99 000 000 000 000 000 -99
000 -99 -99 -99 -99 -99 000 000 000 000 000 000 000 000 005 009 004 002 000 000 000 000 000 -99 -99 000 -99 -99 000 000 -99
000 -99 -99 -99 -99 -99 -99 000 000 000 000 000 000 001 015 031 018 005 000 000 001 003 001 -99 -99 000 000 -99 -99 000 -99
000 000 -99 -99 -99 -99 -99 000 000 000 000 000 003 006 024 038 044 014 001 002 011 008 003 -99 -99 -99 -99 -99 -99 -99 -99
000 000 000 -99 -99 -99 -99 000 000 000 001 003 039 013 028 029 040 017 010 035 082 028 004 -99 -99 -99 -99 -99 -99 -99 -99
000 000 000 000 000 000 -99 000 000 000 001 006 029 016 026 028 027 022 021 039 077 019 004 -99 -99 -99 -99 -99 -99 -99 -99
000 000 000 000 000 000 000 000 000 000 003 013 026 016 030 033 022 029 056 062 061 010 002 -99 -99 -99 -99 -99 -99 -99 -99
000 000 000 000 000 000 000 001 008 004 026 013 019 010 026 022 015 026 051 053 026 003 000 -99 -99 -99 -99 -99 -99 -99 -99
000 000 000 000 001 001 001 004 012 017 021 022 037 017 012 012 005 016 031 017 005 000 000 -99 -99 -99 -99 -99 -99 -99 -99
000 000 000 000 001 005 002 003 004 005 014 013 016 009 010 005 004 006 014 005 002 000 000 -99 -99 -99 -99 -99 -99 000 000
000 000 000 001 002 003 003 003 004 002 003 008 012 006 005 002 003 004 005 001 000 000 000 -99 -99 -99 -99 -99 -99 000 000
000 000 000 002 000 001 004 002 004 002 003 008 005 004 003 001 004 002 001 001 000 001 001 -99 -99 -99 -99 -99 -99 -99 000
000 000 000 000 001 002 002 002 001 002 002 004 004 004 002 002 002 001 000 001 000 002 -99 -99 -99 -99 -99 -99 -99 -99 000
001 000 000 000 000 001 001 002 004 004 003 002 001 001 003 001 001 001 000 001 000 001 000 -99 -99 -99 -99 -99 -99 -99 -99
001 001 000 000 000 001 002 005 005 007 002 002 003 001 002 001 000 000 000 000 000 000 000 000 -99 -99 -99 -99 -99 -99 -99
002 002 001 001 001 002 003 005 004 004 002 003 003 001 001 000 000 000 000 000 000 000 000 000 000 000 000 000 001 001 000
001 003 002 004 004 004 004 004 004 002 002 003 003 001 000 000 000 000 000 000 -99 000 000 000 000 000 000 001 001 001 000
001 002 003 004 005 004 004 004 003 002 002 002 002 001 001 000 000 000 000 000 000 000 000 000 000 000 001 002 001 001 002
001 001 001 002 003 004 004 005 002 002 003 002 002 003 002 001 000 -99 -99 000 000 000 000 000 000 000 001 002 001 001 003
000 001 001 002 003 003 004 006 005 004 005 002 002 002 001 001 001 001 -99 000 000 000 000 000 000 000 000 001 002 006 002
000 001 003 002 001 002 005 013 009 006 008 002 002 001 001 001 001 000 -99 000 000 000 000 000 000 000 000 001 001 009 003
002 004 003 002 003 005 008 018 009 006 009 005 004 000 000 000 000 000 -99 000 000 000 -99 000 000 -99 000 000 002 006 002
003 003 003 003 005 008 011 014 011 006 006 008 005 000 000 000 000 000 -99 000 -99 -99 000 000 000 000 000 000 001 003 001
002 002 002 003 011 010 013 013 013 004 006 006 002 000 000 000 000 000 -99 -99 -99 -99 000 000 000 000 000 000 001 001 000
001 002 002 006 007 007 007 007 010 005 003 002 002 000 000 000 000 -99 000 -99 -99 -99 -99 000 000 000 000 000 000 000 000
001 002 006 005 007 005 003 004 004 002 002 001 001 000 -99 000 -99 -99 000 -99 -99 -99 -99 000 000 000 -99 -99 -99 -99 000
001 000 003 003 008 006 006 004 001 001 002 001 000 000 000 000 -99 -99 000 000 -99 -99 -99 000 000 000 -99 -99 -99 -99 -99
001 000 002 005 010 009 011 006 002 000 001 000 000 000 000 000 -99 000 000 000 000 -99 -99 -99 000 000 -99 -99 -99 -99 -99
000 001 004 006 009 015 012 006 002 000 003 001 000 002 000 000 -99 000 000 000 -99 -99 -99 000 000 -99 -99 -99 -99 -99 -99
000 004 005 004 002 011 006 003 000 003 006 001 001 004 000 -99 000 000 000 000 -99 -99 -99 000 000 000 000 -99 -99 -99 000
003 001 003 002 001 001 001 000 001 006 004 000 003 003 000 -99 000 000 000 000 -99 000 000 000 -99 000 000 -99 -99 -99 -99
005 001 003 006 005 000 000 000 002 005 000 000 001 000 000 -99 -99 000 000 -99 000 000 000 000 000 000 -99 -99 -99 -99 -99
003 002 004 009 007 001 000 000 001 000 000 000 001 000 000 -99 -99 -99 -99 000 000 000 000 000 000 000 000 000 -99 -99 -99
003 000 001 006 003 000 -99 000 000 000 000 000 001 000 000 -99 -99 -99 -99 -99 000 000 -99 000 -99 -99 000 000 -99 -99 -99
007 001 000 000 000 000 -99 000 000 000 000 001 000 000 -99 -99 -99 -99 -99 -99 000 000 -99 -99 -99 -99 000 -99 -99 -99 -99
011 001 000 000 000 -99 -99 -99 -99 -99 000 000 000 000 -99 -99 -99 -99 -99 -99 -99 -99 -99 -99 -99 -99 -99 -99 -99 -99 -99
017 002 001 000 000 -99 -99 -99 -99 -99 -99 -99 -99 -99 -99 -99 -99 000 000 -99 -99 -99 -99 -99 -99 -99 -99 -99 -99 -99 -99
023 003 001 000 -99 -99 -99 -99 -99 -99 -99 -99 -99 -99 -99 -99 000 000 000 -99 -99 -99 -99 -99 -99 -99 -99 -99 -99 -99 -99
015 000 000 -99 -99 -99 -99 -99 -99 -99 -99 -99 -99 -99 -99 -99 -99 -99 -99 -99 -99 -99 -99 -99 -99 -99 -99 -99 -99 -99 -99
